10J3M/DAT/10J3MNTL-11.dat
10 3
20.1538 20.1538
31.3106 31.3106
20.1684 20.1684
27.9114 27.9114
17.9623 17.9623
25.0771 25.0771
24.2802 24.2802
21.2614 21.2614
27.5196 27.5196
28.8642 28.8642
61.1273