10J3M/SOL/10J3MNTL-11.sol
solution status: optimal solution found
objective value:                              59.1165
x#1#2                               0.521489847655974 	(obj:0)
x#1#3                               0.478510152344026 	(obj:0)
x#2#3                               0.058876857580087 	(obj:0)
x#3#1                               0.150089635482372 	(obj:0)
x#3#3                               0.849910364517628 	(obj:0)
x#4#3                                               1 	(obj:0)
x#5#2                                               1 	(obj:0)
x#7#2                                               1 	(obj:0)
x#8#1                                               1 	(obj:0)
x#9#1                                               1 	(obj:0)
x#10#1                                              1 	(obj:0)
z                                             59.1165 	(obj:1)
